p cnf 231 812
c t mc
-4 2 0
-4 -3 0
-2 3 4 0
7 -5 0
7 -6 0
5 6 -7 0
-10 -8 0
-10 9 0
8 -9 10 0
7 10 -11 0
-7 -10 -11 0
7 -10 11 0
-7 10 11 0
12 13 -14 0
-12 -13 -14 0
12 -13 14 0
-12 13 14 0
-11 14 -15 0
11 -14 -15 0
-11 -14 15 0
11 14 15 0
-15 10 -16 0
15 -10 -16 0
-15 -10 16 0
15 10 16 0
-1 14 -17 0
1 -14 -17 0
-1 -14 17 0
1 14 17 0
18 3 0
18 1 0
-3 -1 -18 0
-19 -17 0
-19 18 0
17 -18 19 0
-20 16 0
-20 -19 0
-16 19 20 0
4 20 -21 0
-4 -20 -21 0
4 -20 21 0
-4 20 21 0
-22 -1 0
-22 21 0
1 -21 22 0
-24 -23 0
-24 -1 0
23 1 24 0
25 14 0
25 -24 0
-14 24 -25 0
26 -6 -27 0
-26 6 -27 0
26 6 27 0
-26 -6 27 0
-29 -27 0
-29 28 0
27 -28 29 0
-32 30 0
-32 31 0
-30 -31 32 0
-33 32 0
-33 7 0
-32 -7 33 0
34 -33 0
34 28 0
33 -28 -34 0
35 9 0
35 -31 0
-9 31 -35 0
34 35 -36 0
-34 -35 -36 0
34 -35 36 0
-34 35 36 0
-38 2 0
-38 37 0
-2 -37 38 0
39 38 0
39 37 0
-38 -37 -39 0
40 13 0
40 39 0
-13 -39 -40 0
-41 -36 0
-41 -40 0
36 40 41 0
23 -24 -42 0
-23 24 -42 0
23 24 42 0
-23 -24 42 0
43 12 0
43 23 0
-12 -23 -43 0
42 -43 -44 0
-42 43 -44 0
42 43 44 0
-42 -43 44 0
41 -44 -45 0
-41 44 -45 0
41 44 45 0
-41 -44 45 0
-46 -10 0
-46 -45 0
10 45 46 0
-47 -29 0
-47 -46 0
29 46 47 0
-48 -43 0
-48 2 0
43 -2 48 0
49 2 0
49 -48 0
-2 48 -49 0
50 9 0
50 49 0
-9 -49 -50 0
-51 23 0
-51 -13 0
-23 13 51 0
52 50 0
52 -51 0
-50 51 -52 0
53 52 0
53 15 0
-52 -15 -53 0
-54 47 0
-54 -53 0
-47 53 54 0
55 25 0
55 -54 0
-25 54 -55 0
56 -22 0
56 -55 0
22 55 -56 0
-33 -40 -57 0
33 40 -57 0
-33 40 57 0
33 -40 57 0
58 30 0
58 -57 0
-30 57 -58 0
-13 59 -60 0
13 -59 -60 0
-13 -59 60 0
13 59 60 0
61 60 0
61 48 0
-60 -48 -61 0
62 58 0
62 -61 0
-58 61 -62 0
56 62 -63 0
-56 -62 -63 0
56 -62 63 0
-56 62 63 0
-64 10 0
-64 -26 0
-10 26 64 0
66 64 0
66 -65 0
-64 65 -66 0
-67 19 0
-67 66 0
-19 -66 67 0
-68 -13 0
-68 -5 0
13 5 68 0
70 69 0
70 7 0
-69 -7 -70 0
-71 18 0
-71 -70 0
-18 70 71 0
2 -71 -72 0
-2 71 -72 0
2 71 72 0
-2 -71 72 0
-73 42 0
-73 4 0
-42 -4 73 0
1 73 -74 0
-1 -73 -74 0
1 -73 74 0
-1 73 74 0
75 -72 0
75 -74 0
72 74 -75 0
68 75 -76 0
-68 -75 -76 0
68 -75 76 0
-68 75 76 0
77 -43 0
77 49 0
43 -49 -77 0
-76 -77 -78 0
76 77 -78 0
-76 77 78 0
76 -77 78 0
79 -67 0
79 78 0
67 -78 -79 0
30 13 -80 0
-30 -13 -80 0
30 -13 80 0
-30 13 80 0
19 -80 -81 0
-19 80 -81 0
19 80 81 0
-19 -80 81 0
82 -34 0
82 -74 0
34 74 -82 0
-83 -81 0
-83 82 0
81 -82 83 0
85 -13 0
85 84 0
13 -84 -85 0
-86 -10 0
-86 85 0
10 -85 86 0
-87 83 0
-87 86 0
-83 -86 87 0
3 -81 -88 0
-3 81 -88 0
3 81 88 0
-3 -81 88 0
-89 -1 0
-89 88 0
1 -88 89 0
90 66 0
90 -89 0
-66 89 -90 0
-91 33 0
-91 90 0
-33 -90 91 0
92 30 0
92 30 0
-30 -92 0
-92 -89 -93 0
92 89 -93 0
-92 89 93 0
92 -89 93 0
91 -93 -94 0
-91 93 -94 0
91 93 94 0
-91 -93 94 0
95 -87 0
95 -94 0
87 94 -95 0
96 -24 0
96 44 0
24 -44 -96 0
-96 34 -97 0
96 -34 -97 0
-96 -34 97 0
96 34 97 0
98 -71 0
98 -97 0
71 97 -98 0
-7 12 -99 0
7 -12 -99 0
-7 -12 99 0
7 12 99 0
100 85 0
100 26 0
-85 -26 -100 0
100 -85 -101 0
-100 85 -101 0
100 85 101 0
-100 -85 101 0
-99 -101 -102 0
99 101 -102 0
-99 101 102 0
99 -101 102 0
7 -12 -103 0
-7 12 -103 0
7 12 103 0
-7 -12 103 0
-103 -40 -104 0
103 40 -104 0
-103 40 104 0
103 -40 104 0
-105 104 0
-105 36 0
-104 -36 105 0
-106 26 0
-106 -105 0
-26 105 106 0
-86 59 -107 0
86 -59 -107 0
-86 -59 107 0
86 59 107 0
108 -8 0
108 107 0
8 -107 -108 0
109 106 0
109 108 0
-106 -108 -109 0
-110 -102 0
-110 -109 0
102 109 110 0
-80 35 -112 0
80 -35 -112 0
-80 -35 112 0
80 35 112 0
-113 59 0
-113 69 0
-59 -69 113 0
20 113 -114 0
-20 -113 -114 0
20 -113 114 0
-20 113 114 0
112 -114 -115 0
-112 114 -115 0
112 114 115 0
-112 -114 115 0
-53 88 -116 0
53 -88 -116 0
-53 -88 116 0
53 88 116 0
20 -116 -117 0
-20 116 -117 0
20 116 117 0
-20 -116 117 0
-118 -115 0
-118 117 0
115 -117 118 0
119 111 0
119 118 0
-111 -118 -119 0
-110 -119 -120 0
110 119 -120 0
-110 119 120 0
110 -119 120 0
-98 120 -121 0
98 -120 -121 0
-98 -120 121 0
98 120 121 0
-122 -73 0
-122 39 0
73 -39 122 0
40 -122 -123 0
-40 122 -123 0
40 122 123 0
-40 -122 123 0
124 113 0
124 82 0
-113 -82 -124 0
114 -65 -125 0
-114 65 -125 0
114 65 125 0
-114 -65 125 0
126 124 0
126 -125 0
-124 125 -126 0
-123 -126 -127 0
123 126 -127 0
-123 126 127 0
123 -126 127 0
128 6 0
128 34 0
-6 -34 -128 0
-129 -128 0
-129 33 0
128 -33 129 0
130 127 0
130 129 0
-127 -129 -130 0
-121 -130 -131 0
121 130 -131 0
-121 130 131 0
121 -130 131 0
132 95 0
132 -131 0
-95 131 -132 0
133 -79 0
133 132 0
79 -132 -133 0
-134 -63 0
-134 133 0
63 -133 134 0
135 -50 0
135 77 0
50 -77 -135 0
-49 11 -136 0
49 -11 -136 0
-49 -11 136 0
49 11 136 0
-137 8 0
-137 -65 0
-8 65 137 0
-138 -137 0
-138 -74 0
137 74 138 0
-139 -136 0
-139 -138 0
136 138 139 0
-140 135 0
-140 139 0
-135 -139 140 0
-4 -5 -141 0
4 5 -141 0
-4 5 141 0
4 -5 141 0
-142 -77 0
-142 -141 0
77 141 142 0
-143 -140 0
-143 142 0
140 -142 143 0
-1 60 -144 0
1 -60 -144 0
-1 -60 144 0
1 60 144 0
-51 20 -145 0
51 -20 -145 0
-51 -20 145 0
51 20 145 0
-146 145 0
-146 -51 0
-145 51 146 0
146 21 -147 0
-146 -21 -147 0
146 -21 147 0
-146 21 147 0
-144 -147 -148 0
144 147 -148 0
-144 147 148 0
144 -147 148 0
149 61 0
149 84 0
-61 -84 -149 0
150 -5 0
150 -24 0
5 24 -150 0
-52 150 -151 0
52 -150 -151 0
-52 -150 151 0
52 150 151 0
-149 -151 -152 0
149 151 -152 0
-149 151 152 0
149 -151 152 0
153 -148 0
153 152 0
148 -152 -153 0
60 2 -154 0
-60 -2 -154 0
60 -2 154 0
-60 2 154 0
-57 154 -155 0
57 -154 -155 0
-57 -154 155 0
57 154 155 0
-156 36 0
-156 88 0
-36 -88 156 0
-157 155 0
-157 -156 0
-155 156 157 0
153 -157 -158 0
-153 157 -158 0
153 157 158 0
-153 -157 158 0
-159 -143 0
-159 158 0
143 -158 159 0
-160 134 0
-160 159 0
-134 -159 160 0
161 15 0
161 -37 0
-15 37 -161 0
162 161 0
162 -65 0
-161 65 -162 0
-162 -26 -163 0
162 26 -163 0
-162 26 163 0
162 -26 163 0
164 -72 0
164 122 0
72 -122 -164 0
165 164 0
165 72 0
-164 -72 -165 0
163 165 -166 0
-163 -165 -166 0
163 -165 166 0
-163 165 166 0
-167 33 0
-167 7 0
-33 -7 167 0
-28 -20 -168 0
28 20 -168 0
-28 20 168 0
28 -20 168 0
169 -167 0
169 168 0
167 -168 -169 0
-170 166 0
-170 169 0
-166 -169 170 0
-137 12 -171 0
137 -12 -171 0
-137 -12 171 0
137 12 171 0
-172 -59 0
-172 171 0
59 -171 172 0
-173 -96 0
-173 -24 0
96 24 173 0
-174 -20 0
-174 173 0
20 -173 174 0
-175 172 0
-175 -174 0
-172 174 175 0
176 -32 0
176 -4 0
32 4 -176 0
104 -176 -177 0
-104 176 -177 0
104 176 177 0
-104 -176 177 0
24 177 -178 0
-24 -177 -178 0
24 -177 178 0
-24 177 178 0
175 178 -179 0
-175 -178 -179 0
175 -178 179 0
-175 178 179 0
-176 -9 -180 0
176 9 -180 0
-176 9 180 0
176 -9 180 0
-181 -59 0
-181 -37 0
59 37 181 0
182 181 0
182 19 0
-181 -19 -182 0
-183 18 0
-183 -182 0
-18 182 183 0
180 183 -184 0
-180 -183 -184 0
180 -183 184 0
-180 183 184 0
185 -179 0
185 -184 0
179 184 -185 0
-96 71 -186 0
96 -71 -186 0
-96 -71 186 0
96 71 186 0
-185 -186 -187 0
185 186 -187 0
-185 186 187 0
185 -186 187 0
170 -187 -188 0
-170 187 -188 0
170 187 188 0
-170 -187 188 0
-189 176 0
-189 164 0
-176 -164 189 0
-190 82 0
-190 32 0
-82 -32 190 0
191 49 0
191 57 0
-49 -57 -191 0
192 12 0
192 -191 0
-12 191 -192 0
-193 30 0
-193 43 0
-30 -43 193 0
194 193 0
194 -72 0
-193 72 -194 0
-195 -75 0
-195 -24 0
75 24 195 0
-196 195 0
-196 92 0
-195 -92 196 0
194 196 -197 0
-194 -196 -197 0
194 -196 197 0
-194 196 197 0
154 145 -198 0
-154 -145 -198 0
154 -145 198 0
-154 145 198 0
197 -198 -199 0
-197 198 -199 0
197 198 199 0
-197 -198 199 0
33 -101 -200 0
-33 101 -200 0
33 101 200 0
-33 -101 200 0
15 -200 -201 0
-15 200 -201 0
15 200 201 0
-15 -200 201 0
-85 90 -202 0
85 -90 -202 0
-85 -90 202 0
85 90 202 0
201 -202 -203 0
-201 202 -203 0
201 202 203 0
-201 -202 203 0
204 -182 0
204 19 0
182 -19 -204 0
205 -203 0
205 -204 0
203 204 -205 0
-206 199 0
-206 -205 0
-199 205 206 0
207 -192 0
207 206 0
192 -206 -207 0
208 -190 0
208 207 0
190 -207 -208 0
209 189 0
209 208 0
-189 -208 -209 0
-210 -86 0
-210 6 0
86 -6 210 0
211 77 0
211 49 0
-77 -49 -211 0
-210 211 -212 0
210 -211 -212 0
-210 -211 212 0
210 211 212 0
213 -209 0
213 -212 0
209 212 -213 0
-214 188 0
-214 -213 0
-188 213 214 0
-215 27 0
-215 70 0
-27 -70 215 0
216 -128 0
216 -50 0
128 50 -216 0
-217 -28 0
-217 -216 0
28 216 217 0
-218 -217 0
-218 -92 0
217 92 218 0
219 -154 0
219 82 0
154 -82 -219 0
220 84 0
220 5 0
-84 -5 -220 0
-221 -220 0
-221 -171 0
220 171 221 0
-222 -219 0
-222 221 0
219 -221 222 0
223 -66 0
223 17 0
66 -17 -223 0
224 223 0
224 -5 0
-223 5 -224 0
-225 -222 0
-225 -224 0
222 224 225 0
226 218 0
226 225 0
-218 -225 -226 0
-227 84 0
-227 4 0
-84 -4 227 0
228 -226 0
228 -227 0
226 227 -228 0
-229 215 0
-229 -228 0
-215 228 229 0
-230 -214 0
-230 229 0
214 -229 230 0
-231 -160 0
-231 230 0
160 -230 231 0
88 -125 0
-124 224 -36 -71 -219 -226 15 0
10 9 -155 0
-122 60 -124 58 195 114 181 -189 -69 0
218 -180 -5 -3 -121 -11 -152 118 0
159 -162 90 0
124 -86 0
175 -92 -75 -138 -177 53 0
50 83 -226 -218 19 -132 -211 -68 -71 -57 0
-182 113 -184 180 -91 -149 0
127 -144 97 -187 -219 -119 -92 -110 -223 0
-17 120 -68 -37 0
181 167 -206 -67 -37 -166 -212 -134 0
65 202 144 -157 -179 34 14 37 0
86 93 52 0
-141 -19 -32 98 -184 -128 -133 0
-22 206 0
164 110 -4 25 107 87 77 142 0
143 -210 -206 196 176 12 -22 81 -182 0
89 27 -181 -40 190 -140 164 -210 0
201 101 -182 198 -29 -223 0
15 120 -227 135 39 3 -35 -110 0
3 98 -64 -166 0
13 -51 87 -10 -123 0
-41 -14 6 126 -178 -202 229 197 0
-11 171 0
-221 -152 148 -166 165 0
-211 129 0
182 120 161 170 128 42 -29 -101 0
-169 165 53 145 185 140 -39 55 0
-83 -116 -3 6 122 67 103 177 -111 56 0
108 83 137 174 112 -48 -177 0
-43 222 -90 160 -174 0
-72 -193 -90 -56 -61 -105 23 -93 203 -30 0
72 20 211 36 0
-52 -217 202 0
181 169 10 113 -144 -117 -94 -129 -2 95 0
202 177 0
74 79 126 0
-46 77 141 216 0
18 207 222 109 -160 0
128 139 208 0
171 -176 -181 -50 -27 156 -163 207 0
-213 82 -137 -200 -95 -155 60 0
-183 126 -87 -138 110 163 197 0
-19 -31 61 -36 0
-82 199 0
164 -134 -38 0
226 77 -217 -164 -5 0
31 142 227 48 -40 109 3 29 0
-133 -152 159 113 205 -101 -225 0
-136 -64 142 0
-162 156 -83 0
-59 -137 0
144 -31 -128 97 -210 -58 -160 -5 0
132 210 -157 9 0
178 86 -146 -231 11 0
-190 128 -55 -119 -80 54 -3 0
-108 -216 -136 110 -194 127 -33 0
59 14 -173 -60 57 -206 0
-13 185 184 138 190 7 -200 -62 -223 -22 0
17 3 -30 29 -34 170 82 168 122 0
-183 -130 -157 -134 0
131 218 -128 -225 171 178 0
-190 37 -219 10 -182 -14 113 0
113 -35 174 -172 73 -105 -38 0
-196 -19 231 -26 161 171 0
-91 -45 216 55 -87 -115 154 0
136 35 -80 -2 8 -26 0
-57 -138 -4 -79 -173 -152 0
-37 199 96 179 227 103 0
195 11 4 -35 -150 201 153 -199 191 0
189 105 -21 137 31 76 128 -193 -147 -111 0
185 -198 -156 214 110 -119 -112 -4 0
113 -101 -115 0
91 222 209 213 -183 170 0
217 -180 82 111 0
148 -139 -224 118 92 0
-50 -193 124 -220 -120 -104 -82 -168 47 0
-70 -55 136 -4 -77 -146 68 -122 0
-228 119 -73 15 130 -88 0
24 -210 28 -168 -225 -45 -187 0
228 14 0
-145 -197 0
-120 -113 59 -206 2 -78 -69 -174 0
-181 -47 -95 -18 204 -56 -24 0
57 224 54 24 101 -70 -230 0
-90 160 -51 -200 113 0
136 -92 214 66 -143 -15 -197 206 -156 -84 0
219 -48 49 -60 -22 -159 -205 101 210 0
-27 113 -71 54 -184 132 191 59 88 0
208 -114 -46 0
-140 229 96 100 172 132 67 230 -166 -5 0
108 47 0
-206 165 169 0
-41 7 -143 0
-62 9 -139 -228 0
-226 200 0
2 186 218 -97 0
194 94 183 -125 214 221 35 -117 -178 0
-11 30 -215 137 118 225 12 192 10 0
22 96 85 -164 25 132 31 141 47 0
-106 167 0
1 121 -90 -102 154 -106 -186 0
-173 -161 -178 77 98 86 -6 -126 0
-134 4 -61 194 198 -27 0
231 0
